c "109556.clq"
p edge 141 548
e 1 5
e 1 11
e 1 14
e 1 20
e 1 29
e 1 34
e 1 35
e 1 43
e 1 64
e 1 73
e 1 82
e 1 89
e 1 104
e 1 111
e 1 114
e 2 5
e 2 6
e 2 10
e 2 13
e 2 18
e 2 21
e 2 46
e 2 48
e 2 51
e 2 56
e 2 57
e 2 63
e 2 73
e 2 97
e 2 109
e 2 121
e 2 129
e 3 5
e 3 6
e 3 7
e 3 8
e 3 9
e 3 11
e 3 12
e 3 16
e 3 20
e 3 21
e 3 22
e 3 23
e 3 24
e 3 31
e 3 34
e 3 42
e 3 46
e 3 48
e 3 51
e 3 74
e 3 79
e 3 85
e 3 96
e 3 120
e 3 124
e 3 128
e 3 134
e 3 141
e 4 5
e 4 6
e 4 7
e 4 8
e 4 9
e 4 13
e 4 15
e 4 24
e 4 25
e 4 29
e 4 32
e 4 39
e 4 43
e 4 79
e 4 93
e 4 94
e 4 127
e 4 133
e 5 6
e 5 7
e 5 8
e 5 11
e 5 12
e 5 13
e 5 25
e 5 26
e 5 30
e 5 33
e 5 36
e 5 38
e 5 40
e 5 47
e 5 67
e 5 69
e 5 80
e 5 91
e 5 99
e 5 103
e 5 115
e 5 122
e 5 123
e 5 131
e 5 140
e 6 7
e 6 8
e 6 9
e 6 10
e 6 11
e 6 17
e 6 23
e 6 31
e 6 39
e 6 45
e 6 53
e 6 66
e 6 115
e 6 128
e 6 136
e 6 138
e 7 9
e 7 10
e 7 14
e 7 16
e 7 18
e 7 19
e 7 21
e 7 23
e 7 28
e 7 33
e 7 35
e 7 41
e 7 43
e 7 110
e 7 115
e 7 135
e 7 139
e 8 12
e 8 13
e 8 15
e 8 16
e 8 19
e 8 20
e 8 22
e 8 23
e 8 40
e 8 51
e 8 62
e 8 63
e 8 66
e 8 67
e 8 76
e 8 88
e 8 94
e 8 96
e 8 105
e 8 127
e 8 141
e 9 10
e 9 12
e 9 14
e 9 15
e 9 19
e 9 22
e 9 27
e 9 31
e 9 39
e 9 40
e 9 49
e 9 53
e 9 54
e 9 55
e 9 57
e 9 59
e 9 61
e 9 72
e 9 88
e 9 91
e 9 92
e 9 108
e 9 112
e 9 116
e 9 118
e 9 119
e 10 17
e 10 24
e 10 26
e 10 48
e 10 50
e 10 69
e 10 82
e 10 102
e 10 112
e 11 16
e 11 25
e 11 33
e 11 73
e 11 87
e 11 107
e 12 14
e 12 17
e 12 18
e 12 39
e 12 48
e 12 49
e 12 55
e 12 69
e 12 86
e 12 87
e 12 100
e 12 102
e 12 110
e 12 125
e 12 126
e 12 133
e 12 134
e 13 17
e 13 26
e 13 30
e 13 43
e 13 44
e 13 97
e 14 15
e 14 20
e 14 25
e 14 35
e 14 36
e 14 37
e 14 44
e 14 54
e 14 70
e 14 78
e 14 94
e 14 103
e 14 110
e 14 118
e 14 132
e 14 136
e 15 41
e 15 49
e 15 90
e 15 126
e 15 128
e 16 26
e 16 46
e 16 50
e 16 58
e 16 84
e 16 85
e 16 90
e 16 93
e 16 105
e 16 108
e 16 109
e 16 126
e 17 18
e 17 19
e 17 22
e 17 24
e 17 32
e 17 42
e 17 75
e 17 88
e 17 107
e 17 129
e 17 141
e 18 27
e 18 28
e 18 32
e 18 36
e 18 42
e 18 47
e 18 50
e 18 59
e 18 68
e 18 74
e 18 75
e 18 86
e 18 89
e 18 132
e 19 46
e 19 95
e 19 111
e 20 21
e 20 28
e 20 29
e 20 44
e 20 59
e 20 65
e 20 71
e 20 95
e 20 101
e 20 108
e 20 113
e 20 122
e 20 126
e 21 52
e 21 60
e 21 80
e 21 100
e 21 130
e 21 135
e 22 52
e 22 58
e 22 62
e 22 72
e 22 83
e 22 87
e 22 116
e 22 134
e 23 28
e 23 38
e 23 79
e 23 86
e 23 123
e 23 130
e 24 53
e 24 68
e 24 91
e 24 96
e 25 27
e 25 29
e 25 36
e 25 40
e 25 45
e 25 55
e 25 60
e 25 65
e 25 66
e 25 71
e 25 72
e 25 83
e 25 92
e 25 98
e 25 101
e 25 119
e 26 27
e 26 30
e 26 31
e 26 41
e 26 73
e 26 77
e 26 82
e 26 111
e 27 61
e 27 83
e 27 104
e 27 106
e 27 107
e 28 30
e 28 33
e 28 34
e 28 37
e 28 60
e 28 64
e 28 70
e 28 81
e 28 84
e 28 95
e 28 101
e 28 110
e 28 117
e 28 139
e 29 93
e 29 121
e 30 32
e 30 34
e 30 35
e 30 41
e 30 44
e 30 52
e 30 57
e 30 96
e 30 119
e 31 38
e 31 47
e 31 66
e 31 88
e 31 97
e 31 103
e 31 104
e 31 107
e 31 113
e 31 121
e 32 55
e 32 79
e 32 81
e 32 116
e 32 123
e 33 62
e 33 138
e 33 139
e 34 37
e 34 42
e 34 45
e 34 53
e 34 67
e 34 75
e 34 114
e 34 131
e 34 137
e 35 37
e 35 84
e 35 99
e 35 111
e 36 38
e 36 47
e 36 61
e 36 74
e 36 91
e 36 114
e 36 124
e 37 49
e 37 50
e 37 58
e 37 102
e 37 118
e 37 133
e 38 98
e 38 102
e 38 116
e 39 54
e 39 61
e 39 76
e 39 119
e 39 121
e 40 45
e 40 69
e 41 64
e 41 113
e 41 134
e 42 80
e 42 125
e 42 132
e 43 57
e 43 65
e 43 67
e 43 85
e 43 118
e 43 122
e 44 56
e 44 80
e 44 99
e 45 52
e 45 56
e 45 70
e 46 64
e 46 65
e 46 75
e 46 82
e 46 100
e 46 108
e 46 133
e 47 78
e 47 89
e 47 90
e 47 92
e 47 131
e 48 54
e 48 58
e 48 68
e 48 76
e 48 78
e 48 85
e 48 101
e 48 106
e 48 131
e 49 59
e 49 103
e 50 51
e 50 100
e 51 56
e 51 78
e 51 136
e 52 129
e 52 140
e 53 62
e 53 86
e 53 106
e 55 63
e 55 125
e 56 70
e 56 106
e 57 60
e 57 63
e 57 76
e 58 125
e 59 68
e 59 114
e 59 137
e 60 71
e 60 72
e 60 77
e 60 135
e 61 77
e 61 93
e 61 98
e 62 74
e 62 81
e 62 99
e 64 117
e 66 120
e 67 71
e 67 77
e 67 87
e 67 136
e 68 81
e 68 112
e 69 117
e 69 137
e 70 120
e 71 135
e 73 92
e 73 98
e 73 124
e 73 139
e 76 127
e 77 83
e 77 84
e 77 97
e 77 104
e 78 112
e 78 115
e 78 123
e 78 130
e 79 90
e 79 109
e 79 132
e 81 89
e 81 94
e 82 105
e 82 130
e 92 95
e 92 120
e 94 105
e 94 140
e 96 128
e 97 140
e 98 109
e 100 122
e 104 137
e 108 127
e 109 113
e 113 124
e 116 117
e 119 138
e 120 129
e 127 141
e 133 138
